NAME : amz1724.105099_100599.tour
COMMENT : Cost = 105099_100599
COMMENT : Found by LKH-AMZ [Keld Helsgaun] Sun May 11 14:59:03 2025
COMMENT : TW viol.: 0 #: 0
TYPE : TOUR
DIMENSION : 121
TOUR_SECTION
101
58
36
7
61
15
73
98
81
109
10
14
3
29
92
93
54
8
87
35
69
97
104
47
21
37
85
89
32
40
50
39
117
99
64
107
60
34
115
63
102
48
26
24
70
28
96
6
79
52
53
95
18
112
94
91
110
88
11
83
57
75
120
33
118
38
103
1
113
22
41
90
76
71
19
20
106
59
68
42
72
30
49
105
5
17
45
119
12
121
4
44
84
82
55
46
13
65
116
114
25
9
27
2
66
111
74
67
43
86
51
80
77
31
23
56
16
62
78
100
108
-1
EOF
